

******************************************************************************
This program contains Ipopt, a library for large-scale nonlinear optimization.
 Ipopt is released as open source code under the Eclipse Public License (EPL).
         For more information visit http://projects.coin-or.org/Ipopt
******************************************************************************

This is Ipopt version 3.12.8, running with linear solver mumps.
NOTE: Other linear solvers might be more efficient (see Ipopt documentation).

Number of nonzeros in equality constraint Jacobian...:        0
Number of nonzeros in inequality constraint Jacobian.:     2550
Number of nonzeros in Lagrangian Hessian.............:        0

Total number of variables............................:       51
                     variables with only lower bounds:        0
                variables with lower and upper bounds:        0
                     variables with only upper bounds:        0
Total number of equality constraints.................:        0
Total number of inequality constraints...............:       50
        inequality constraints with only lower bounds:       50
   inequality constraints with lower and upper bounds:        0
        inequality constraints with only upper bounds:        0

iter    objective    inf_pr   inf_du lg(mu)  ||d||  lg(rg) alpha_du alpha_pr  ls
   0  0.0000000e+00 1.22e+03 9.61e-01  -1.0 0.00e+00    -  0.00e+00 0.00e+00   0
   1  3.0635459e+02 0.00e+00 1.00e-06  -1.0 3.06e+02    -  1.00e+00 1.00e+00h  1
   2  2.4205678e+02 0.00e+00 1.70e-02  -1.0 1.70e+02  -4.0 1.00e+00 1.00e+00f  1
   3  1.0982327e+02 0.00e+00 1.82e-02  -1.0 5.47e+02  -4.5 1.00e+00 7.10e-01f  1
   4  3.7063185e+01 0.00e+00 5.76e-03  -1.7 7.83e+03    -  1.00e+00 8.13e-02f  1
   5  3.0895930e+00 0.00e+00 1.54e-03  -1.7 1.39e+02  -5.0 1.00e+00 1.00e+00f  1
   6  8.7152338e-01 0.00e+00 4.69e-05  -1.7 1.27e+01  -5.4 1.00e+00 9.93e-01f  1
   7  7.3547248e-03 0.00e+00 1.50e-09  -3.8 9.93e-01    -  1.00e+00 1.00e+00f  1
   8  9.2236263e-05 0.00e+00 1.84e-11  -5.7 7.43e-03    -  1.00e+00 1.00e+00f  1
   9  1.1529485e-07 0.00e+00 2.51e-14  -8.6 9.21e-05    -  1.00e+00 1.00e+00f  1

Number of Iterations....: 9

                                   (scaled)                 (unscaled)
Objective...............:   1.1529484959440096e-07    1.1529484959440096e-07
Dual infeasibility......:   2.5059815333960955e-14    2.5059815333960955e-14
Constraint violation....:   0.0000000000000000e+00    0.0000000000000000e+00
Complementarity.........:   2.5059052569440268e-09    2.5059052569440268e-09
Overall NLP error.......:   2.5059052569440268e-09    2.5059052569440268e-09


Number of objective function evaluations             = 10
Number of objective gradient evaluations             = 10
Number of equality constraint evaluations            = 0
Number of inequality constraint evaluations          = 10
Number of equality constraint Jacobian evaluations   = 0
Number of inequality constraint Jacobian evaluations = 10
Number of Lagrangian Hessian evaluations             = 9
Total CPU secs in IPOPT (w/o function evaluations)   =      0.007
Total CPU secs in NLP function evaluations           =      0.000

EXIT: Optimal Solution Found.
 
Ipopt 3.12.8: Optimal Solution Found
